\Problem name: compact

Minimize
OBJROW: C
Subject To
ord(0,1):  - x(0,1) + x(0,2) >= 5
ord(0,2):  x(0,0) - x(0,2) >= 9
ord(1,1):  - x(1,1) + x(1,2) >= 8
ord(1,2):  x(1,0) - x(1,2) >= 3
ord(2,1):  - x(2,0) + x(2,2) >= 2
ord(2,2):  x(2,1) - x(2,2) >= 4
ord(3,1):  - x(3,1) + x(3,2) >= 2
ord(3,2):  x(3,0) - x(3,2) >= 4
triangle2(0,1,0):  y(0,1,0) + y(1,0,0) = 1
triangle2(0,1,1):  y(0,1,1) + y(1,0,1) = 1
triangle2(0,1,2):  y(0,1,2) + y(1,0,2) = 1
triangle2(0,2,0):  y(0,2,0) + y(2,0,0) = 1
triangle2(0,2,1):  y(0,2,1) + y(2,0,1) = 1
triangle2(0,2,2):  y(0,2,2) + y(2,0,2) = 1
triangle2(0,3,0):  y(0,3,0) + y(3,0,0) = 1
triangle2(0,3,1):  y(0,3,1) + y(3,0,1) = 1
triangle2(0,3,2):  y(0,3,2) + y(3,0,2) = 1
triangle2(1,2,0):  y(1,2,0) + y(2,1,0) = 1
triangle2(1,2,1):  y(1,2,1) + y(2,1,1) = 1
triangle2(1,2,2):  y(1,2,2) + y(2,1,2) = 1
triangle2(1,3,0):  y(1,3,0) + y(3,1,0) = 1
triangle2(1,3,1):  y(1,3,1) + y(3,1,1) = 1
triangle2(1,3,2):  y(1,3,2) + y(3,1,2) = 1
triangle2(2,3,0):  y(2,3,0) + y(3,2,0) = 1
triangle2(2,3,1):  y(2,3,1) + y(3,2,1) = 1
triangle2(2,3,2):  y(2,3,2) + y(3,2,2) = 1
MCLinV(0,1,0):  x(0,0) - v(0,1,0) - x(1,0) = 3
MCLinV(1,0,0):  - x(0,0) - v(1,0,0) + x(1,0) = 1
MCLin1(0,1,0):  u(0,1,0) >= -0
MCLin2(0,1,0):  -35 y(1,0,0) - u(0,1,0) <= -0
MCLin3(0,1,0):  34 y(1,0,0) + v(0,1,0) - u(0,1,0) <= 34
MCLin4(0,1,0):  34 y(1,0,0) - u(0,1,0) >= -0
MCLin5(0,1,0):  -35 y(1,0,0) + v(0,1,0) - u(0,1,0) >= -35
MCLin6(1,0,0):  u(1,0,0) >= -0
MCLin7(1,0,0):  -38 y(0,1,0) - u(1,0,0) <= -0
MCLin8(1,0,0):  31 y(0,1,0) + v(1,0,0) - u(1,0,0) <= 31
MCLin9(1,0,0):  31 y(0,1,0) - u(1,0,0) >= -0
MCLin10(1,0,0):  -38 y(0,1,0) + v(1,0,0) - u(1,0,0) >= -38
MCLinV(0,1,1):  x(0,1) - v(0,1,1) - x(1,1) = 8
MCLinV(1,0,1):  - x(0,1) - v(1,0,1) + x(1,1) = 5
MCLin1(0,1,1):  u(0,1,1) >= -0
MCLin2(0,1,1):  -43 y(1,0,1) - u(0,1,1) <= -0
MCLin3(0,1,1):  26 y(1,0,1) + v(0,1,1) - u(0,1,1) <= 26
MCLin4(0,1,1):  26 y(1,0,1) - u(0,1,1) >= -0
MCLin5(0,1,1):  -43 y(1,0,1) + v(0,1,1) - u(0,1,1) >= -43
MCLin6(1,0,1):  u(1,0,1) >= -0
MCLin7(1,0,1):  -39 y(0,1,1) - u(1,0,1) <= -0
MCLin8(1,0,1):  30 y(0,1,1) + v(1,0,1) - u(1,0,1) <= 30
MCLin9(1,0,1):  30 y(0,1,1) - u(1,0,1) >= -0
MCLin10(1,0,1):  -39 y(0,1,1) + v(1,0,1) - u(1,0,1) >= -39
MCLinV(0,1,2):  x(0,2) - v(0,1,2) - x(1,2) = 3
MCLinV(1,0,2):  - x(0,2) - v(1,0,2) + x(1,2) = 9
MCLin1(0,1,2):  u(0,1,2) >= -0
MCLin2(0,1,2):  -41 y(1,0,2) - u(0,1,2) <= -0
MCLin3(0,1,2):  28 y(1,0,2) + v(0,1,2) - u(0,1,2) <= 28
MCLin4(0,1,2):  28 y(1,0,2) - u(0,1,2) >= -0
MCLin5(0,1,2):  -41 y(1,0,2) + v(0,1,2) - u(0,1,2) >= -41
MCLin6(1,0,2):  u(1,0,2) >= -0
MCLin7(1,0,2):  -40 y(0,1,2) - u(1,0,2) <= -0
MCLin8(1,0,2):  29 y(0,1,2) + v(1,0,2) - u(1,0,2) <= 29
MCLin9(1,0,2):  29 y(0,1,2) - u(1,0,2) >= -0
MCLin10(1,0,2):  -40 y(0,1,2) + v(1,0,2) - u(1,0,2) >= -40
MCLinV(0,2,0):  x(0,0) - v(0,2,0) - x(2,0) = 2
MCLinV(2,0,0):  - x(0,0) - v(2,0,0) + x(2,0) = 1
MCLin1(0,2,0):  u(0,2,0) >= -0
MCLin2(0,2,0):  -29 y(2,0,0) - u(0,2,0) <= -0
MCLin3(0,2,0):  46 y(2,0,0) + v(0,2,0) - u(0,2,0) <= 46
MCLin4(0,2,0):  46 y(2,0,0) - u(0,2,0) >= -0
MCLin5(0,2,0):  -29 y(2,0,0) + v(0,2,0) - u(0,2,0) >= -29
MCLin6(2,0,0):  u(2,0,0) >= -0
MCLin7(2,0,0):  -49 y(0,2,0) - u(2,0,0) <= -0
MCLin8(2,0,0):  26 y(0,2,0) + v(2,0,0) - u(2,0,0) <= 26
MCLin9(2,0,0):  26 y(0,2,0) - u(2,0,0) >= -0
MCLin10(2,0,0):  -49 y(0,2,0) + v(2,0,0) - u(2,0,0) >= -49
MCLinV(0,2,1):  x(0,1) - v(0,2,1) - x(2,1) = 2
MCLinV(2,0,1):  - x(0,1) - v(2,0,1) + x(2,1) = 5
MCLin1(0,2,1):  u(0,2,1) >= -0
MCLin2(0,2,1):  -49 y(2,0,1) - u(0,2,1) <= -0
MCLin3(0,2,1):  26 y(2,0,1) + v(0,2,1) - u(0,2,1) <= 26
MCLin4(0,2,1):  26 y(2,0,1) - u(0,2,1) >= -0
MCLin5(0,2,1):  -49 y(2,0,1) + v(0,2,1) - u(0,2,1) >= -49
MCLin6(2,0,1):  u(2,0,1) >= -0
MCLin7(2,0,1):  -33 y(0,2,1) - u(2,0,1) <= -0
MCLin8(2,0,1):  42 y(0,2,1) + v(2,0,1) - u(2,0,1) <= 42
MCLin9(2,0,1):  42 y(0,2,1) - u(2,0,1) >= -0
MCLin10(2,0,1):  -33 y(0,2,1) + v(2,0,1) - u(2,0,1) >= -33
MCLinV(0,2,2):  x(0,2) - v(0,2,2) - x(2,2) = 4
MCLinV(2,0,2):  - x(0,2) - v(2,0,2) + x(2,2) = 9
MCLin1(0,2,2):  u(0,2,2) >= -0
MCLin2(0,2,2):  -42 y(2,0,2) - u(0,2,2) <= -0
MCLin3(0,2,2):  33 y(2,0,2) + v(0,2,2) - u(0,2,2) <= 33
MCLin4(0,2,2):  33 y(2,0,2) - u(0,2,2) >= -0
MCLin5(0,2,2):  -42 y(2,0,2) + v(0,2,2) - u(0,2,2) >= -42
MCLin6(2,0,2):  u(2,0,2) >= -0
MCLin7(2,0,2):  -46 y(0,2,2) - u(2,0,2) <= -0
MCLin8(2,0,2):  29 y(0,2,2) + v(2,0,2) - u(2,0,2) <= 29
MCLin9(2,0,2):  29 y(0,2,2) - u(2,0,2) >= -0
MCLin10(2,0,2):  -46 y(0,2,2) + v(2,0,2) - u(2,0,2) >= -46
MCLinV(0,3,0):  x(0,0) - v(0,3,0) - x(3,0) = 6
MCLinV(3,0,0):  - x(0,0) - v(3,0,0) + x(3,0) = 1
MCLin1(0,3,0):  u(0,3,0) >= -0
MCLin2(0,3,0):  -35 y(3,0,0) - u(0,3,0) <= -0
MCLin3(0,3,0):  36 y(3,0,0) + v(0,3,0) - u(0,3,0) <= 36
MCLin4(0,3,0):  36 y(3,0,0) - u(0,3,0) >= -0
MCLin5(0,3,0):  -35 y(3,0,0) + v(0,3,0) - u(0,3,0) >= -35
MCLin6(3,0,0):  u(3,0,0) >= -0
MCLin7(3,0,0):  -43 y(0,3,0) - u(3,0,0) <= -0
MCLin8(3,0,0):  28 y(0,3,0) + v(3,0,0) - u(3,0,0) <= 28
MCLin9(3,0,0):  28 y(0,3,0) - u(3,0,0) >= -0
MCLin10(3,0,0):  -43 y(0,3,0) + v(3,0,0) - u(3,0,0) >= -43
MCLinV(0,3,1):  x(0,1) - v(0,3,1) - x(3,1) = 2
MCLinV(3,0,1):  - x(0,1) - v(3,0,1) + x(3,1) = 5
MCLin1(0,3,1):  u(0,3,1) >= -0
MCLin2(0,3,1):  -39 y(3,0,1) - u(0,3,1) <= -0
MCLin3(0,3,1):  32 y(3,0,1) + v(0,3,1) - u(0,3,1) <= 32
MCLin4(0,3,1):  32 y(3,0,1) - u(0,3,1) >= -0
MCLin5(0,3,1):  -39 y(3,0,1) + v(0,3,1) - u(0,3,1) >= -39
MCLin6(3,0,1):  u(3,0,1) >= -0
MCLin7(3,0,1):  -39 y(0,3,1) - u(3,0,1) <= -0
MCLin8(3,0,1):  32 y(0,3,1) + v(3,0,1) - u(3,0,1) <= 32
MCLin9(3,0,1):  32 y(0,3,1) - u(3,0,1) >= -0
MCLin10(3,0,1):  -39 y(0,3,1) + v(3,0,1) - u(3,0,1) >= -39
MCLinV(0,3,2):  x(0,2) - v(0,3,2) - x(3,2) = 4
MCLinV(3,0,2):  - x(0,2) - v(3,0,2) + x(3,2) = 9
MCLin1(0,3,2):  u(0,3,2) >= -0
MCLin2(0,3,2):  -38 y(3,0,2) - u(0,3,2) <= -0
MCLin3(0,3,2):  33 y(3,0,2) + v(0,3,2) - u(0,3,2) <= 33
MCLin4(0,3,2):  33 y(3,0,2) - u(0,3,2) >= -0
MCLin5(0,3,2):  -38 y(3,0,2) + v(0,3,2) - u(0,3,2) >= -38
MCLin6(3,0,2):  u(3,0,2) >= -0
MCLin7(3,0,2):  -46 y(0,3,2) - u(3,0,2) <= -0
MCLin8(3,0,2):  25 y(0,3,2) + v(3,0,2) - u(3,0,2) <= 25
MCLin9(3,0,2):  25 y(0,3,2) - u(3,0,2) >= -0
MCLin10(3,0,2):  -46 y(0,3,2) + v(3,0,2) - u(3,0,2) >= -46
MCLinV(1,2,0):  x(1,0) - v(1,2,0) - x(2,0) = 2
MCLinV(2,1,0):  - x(1,0) - v(2,1,0) + x(2,0) = 3
MCLin1(1,2,0):  u(1,2,0) >= -0
MCLin2(1,2,0):  -32 y(2,1,0) - u(1,2,0) <= -0
MCLin3(1,2,0):  44 y(2,1,0) + v(1,2,0) - u(1,2,0) <= 44
MCLin4(1,2,0):  44 y(2,1,0) - u(1,2,0) >= -0
MCLin5(1,2,0):  -32 y(2,1,0) + v(1,2,0) - u(1,2,0) >= -32
MCLin6(2,1,0):  u(2,1,0) >= -0
MCLin7(2,1,0):  -49 y(1,2,0) - u(2,1,0) <= -0
MCLin8(2,1,0):  27 y(1,2,0) + v(2,1,0) - u(2,1,0) <= 27
MCLin9(2,1,0):  27 y(1,2,0) - u(2,1,0) >= -0
MCLin10(2,1,0):  -49 y(1,2,0) + v(2,1,0) - u(2,1,0) >= -49
MCLinV(1,2,1):  x(1,1) - v(1,2,1) - x(2,1) = 2
MCLinV(2,1,1):  - x(1,1) - v(2,1,1) + x(2,1) = 8
MCLin1(1,2,1):  u(1,2,1) >= -0
MCLin2(1,2,1):  -49 y(2,1,1) - u(1,2,1) <= -0
MCLin3(1,2,1):  27 y(2,1,1) + v(1,2,1) - u(1,2,1) <= 27
MCLin4(1,2,1):  27 y(2,1,1) - u(1,2,1) >= -0
MCLin5(1,2,1):  -49 y(2,1,1) + v(1,2,1) - u(1,2,1) >= -49
MCLin6(2,1,1):  u(2,1,1) >= -0
MCLin7(2,1,1):  -37 y(1,2,1) - u(2,1,1) <= -0
MCLin8(2,1,1):  39 y(1,2,1) + v(2,1,1) - u(2,1,1) <= 39
MCLin9(2,1,1):  39 y(1,2,1) - u(2,1,1) >= -0
MCLin10(2,1,1):  -37 y(1,2,1) + v(2,1,1) - u(2,1,1) >= -37
MCLinV(1,2,2):  x(1,2) - v(1,2,2) - x(2,2) = 4
MCLinV(2,1,2):  - x(1,2) - v(2,1,2) + x(2,2) = 3
MCLin1(1,2,2):  u(1,2,2) >= -0
MCLin2(1,2,2):  -39 y(2,1,2) - u(1,2,2) <= -0
MCLin3(1,2,2):  37 y(2,1,2) + v(1,2,2) - u(1,2,2) <= 37
MCLin4(1,2,2):  37 y(2,1,2) - u(1,2,2) >= -0
MCLin5(1,2,2):  -39 y(2,1,2) + v(1,2,2) - u(1,2,2) >= -39
MCLin6(2,1,2):  u(2,1,2) >= -0
MCLin7(2,1,2):  -44 y(1,2,2) - u(2,1,2) <= -0
MCLin8(2,1,2):  32 y(1,2,2) + v(2,1,2) - u(2,1,2) <= 32
MCLin9(2,1,2):  32 y(1,2,2) - u(2,1,2) >= -0
MCLin10(2,1,2):  -44 y(1,2,2) + v(2,1,2) - u(2,1,2) >= -44
MCLinV(1,3,0):  x(1,0) - v(1,3,0) - x(3,0) = 6
MCLinV(3,1,0):  - x(1,0) - v(3,1,0) + x(3,0) = 3
MCLin1(1,3,0):  u(1,3,0) >= -0
MCLin2(1,3,0):  -38 y(3,1,0) - u(1,3,0) <= -0
MCLin3(1,3,0):  34 y(3,1,0) + v(1,3,0) - u(1,3,0) <= 34
MCLin4(1,3,0):  34 y(3,1,0) - u(1,3,0) >= -0
MCLin5(1,3,0):  -38 y(3,1,0) + v(1,3,0) - u(1,3,0) >= -38
MCLin6(3,1,0):  u(3,1,0) >= -0
MCLin7(3,1,0):  -43 y(1,3,0) - u(3,1,0) <= -0
MCLin8(3,1,0):  29 y(1,3,0) + v(3,1,0) - u(3,1,0) <= 29
MCLin9(3,1,0):  29 y(1,3,0) - u(3,1,0) >= -0
MCLin10(3,1,0):  -43 y(1,3,0) + v(3,1,0) - u(3,1,0) >= -43
MCLinV(1,3,1):  x(1,1) - v(1,3,1) - x(3,1) = 2
MCLinV(3,1,1):  - x(1,1) - v(3,1,1) + x(3,1) = 8
MCLin1(1,3,1):  u(1,3,1) >= -0
MCLin2(1,3,1):  -39 y(3,1,1) - u(1,3,1) <= -0
MCLin3(1,3,1):  33 y(3,1,1) + v(1,3,1) - u(1,3,1) <= 33
MCLin4(1,3,1):  33 y(3,1,1) - u(1,3,1) >= -0
MCLin5(1,3,1):  -39 y(3,1,1) + v(1,3,1) - u(1,3,1) >= -39
MCLin6(3,1,1):  u(3,1,1) >= -0
MCLin7(3,1,1):  -43 y(1,3,1) - u(3,1,1) <= -0
MCLin8(3,1,1):  29 y(1,3,1) + v(3,1,1) - u(3,1,1) <= 29
MCLin9(3,1,1):  29 y(1,3,1) - u(3,1,1) >= -0
MCLin10(3,1,1):  -43 y(1,3,1) + v(3,1,1) - u(3,1,1) >= -43
MCLinV(1,3,2):  x(1,2) - v(1,3,2) - x(3,2) = 4
MCLinV(3,1,2):  - x(1,2) - v(3,1,2) + x(3,2) = 3
MCLin1(1,3,2):  u(1,3,2) >= -0
MCLin2(1,3,2):  -35 y(3,1,2) - u(1,3,2) <= -0
MCLin3(1,3,2):  37 y(3,1,2) + v(1,3,2) - u(1,3,2) <= 37
MCLin4(1,3,2):  37 y(3,1,2) - u(1,3,2) >= -0
MCLin5(1,3,2):  -35 y(3,1,2) + v(1,3,2) - u(1,3,2) >= -35
MCLin6(3,1,2):  u(3,1,2) >= -0
MCLin7(3,1,2):  -44 y(1,3,2) - u(3,1,2) <= -0
MCLin8(3,1,2):  28 y(1,3,2) + v(3,1,2) - u(3,1,2) <= 28
MCLin9(3,1,2):  28 y(1,3,2) - u(3,1,2) >= -0
MCLin10(3,1,2):  -44 y(1,3,2) + v(3,1,2) - u(3,1,2) >= -44
MCLinV(2,3,0):  x(2,0) - v(2,3,0) - x(3,0) = 6
MCLinV(3,2,0):  - x(2,0) - v(3,2,0) + x(3,0) = 2
MCLin1(2,3,0):  u(2,3,0) >= -0
MCLin2(2,3,0):  -49 y(3,2,0) - u(2,3,0) <= -0
MCLin3(2,3,0):  29 y(3,2,0) + v(2,3,0) - u(2,3,0) <= 29
MCLin4(2,3,0):  29 y(3,2,0) - u(2,3,0) >= -0
MCLin5(2,3,0):  -49 y(3,2,0) + v(2,3,0) - u(2,3,0) >= -49
MCLin6(3,2,0):  u(3,2,0) >= -0
MCLin7(3,2,0):  -37 y(2,3,0) - u(3,2,0) <= -0
MCLin8(3,2,0):  41 y(2,3,0) + v(3,2,0) - u(3,2,0) <= 41
MCLin9(3,2,0):  41 y(2,3,0) - u(3,2,0) >= -0
MCLin10(3,2,0):  -37 y(2,3,0) + v(3,2,0) - u(3,2,0) >= -37
MCLinV(2,3,1):  x(2,1) - v(2,3,1) - x(3,1) = 2
MCLinV(3,2,1):  - x(2,1) - v(3,2,1) + x(3,1) = 2
MCLin1(2,3,1):  u(2,3,1) >= -0
MCLin2(2,3,1):  -33 y(3,2,1) - u(2,3,1) <= -0
MCLin3(2,3,1):  45 y(3,2,1) + v(2,3,1) - u(2,3,1) <= 45
MCLin4(2,3,1):  45 y(3,2,1) - u(2,3,1) >= -0
MCLin5(2,3,1):  -33 y(3,2,1) + v(2,3,1) - u(2,3,1) >= -33
MCLin6(3,2,1):  u(3,2,1) >= -0
MCLin7(3,2,1):  -49 y(2,3,1) - u(3,2,1) <= -0
MCLin8(3,2,1):  29 y(2,3,1) + v(3,2,1) - u(3,2,1) <= 29
MCLin9(3,2,1):  29 y(2,3,1) - u(3,2,1) >= -0
MCLin10(3,2,1):  -49 y(2,3,1) + v(3,2,1) - u(3,2,1) >= -49
MCLinV(2,3,2):  x(2,2) - v(2,3,2) - x(3,2) = 4
MCLinV(3,2,2):  - x(2,2) - v(3,2,2) + x(3,2) = 4
MCLin1(2,3,2):  u(2,3,2) >= -0
MCLin2(2,3,2):  -41 y(3,2,2) - u(2,3,2) <= -0
MCLin3(2,3,2):  37 y(3,2,2) + v(2,3,2) - u(2,3,2) <= 37
MCLin4(2,3,2):  37 y(3,2,2) - u(2,3,2) >= -0
MCLin5(2,3,2):  -41 y(3,2,2) + v(2,3,2) - u(2,3,2) >= -41
MCLin6(3,2,2):  u(3,2,2) >= -0
MCLin7(3,2,2):  -45 y(2,3,2) - u(3,2,2) <= -0
MCLin8(3,2,2):  33 y(2,3,2) + v(3,2,2) - u(3,2,2) <= 33
MCLin9(3,2,2):  33 y(2,3,2) - u(3,2,2) >= -0
MCLin10(3,2,2):  -45 y(2,3,2) + v(3,2,2) - u(3,2,2) >= -45
makespan(0):  C - x(0,0) >= 1
makespan(1):  C - x(1,0) >= 3
makespan(2):  C - x(2,1) >= 2
makespan(3):  C - x(3,0) >= 6
Bounds
 0 <= C <= 49
 14 <= x(0,0) <= 48
 0 <= y(0,1,0) <= 1
 0 <= y(1,0,0) <= 1
 -35 <= v(0,1,0) <= 34
 -38 <= v(1,0,0) <= 31
 -490 <= u(0,1,0)
 -490 <= u(1,0,0)
 0 <= y(0,2,0) <= 1
 0 <= y(2,0,0) <= 1
 -29 <= v(0,2,0) <= 46
 -49 <= v(2,0,0) <= 26
 -490 <= u(0,2,0)
 -490 <= u(2,0,0)
 0 <= y(0,3,0) <= 1
 0 <= y(3,0,0) <= 1
 -35 <= v(0,3,0) <= 36
 -43 <= v(3,0,0) <= 28
 -490 <= u(0,3,0)
 -490 <= u(3,0,0)
 11 <= x(1,0) <= 46
 0 <= y(1,2,0) <= 1
 0 <= y(2,1,0) <= 1
 -32 <= v(1,2,0) <= 44
 -49 <= v(2,1,0) <= 27
 -490 <= u(1,2,0)
 -490 <= u(2,1,0)
 0 <= y(1,3,0) <= 1
 0 <= y(3,1,0) <= 1
 -38 <= v(1,3,0) <= 34
 -43 <= v(3,1,0) <= 29
 -490 <= u(1,3,0)
 -490 <= u(3,1,0)
 0 <= x(2,0) <= 41
 0 <= y(2,3,0) <= 1
 0 <= y(3,2,0) <= 1
 -49 <= v(2,3,0) <= 29
 -37 <= v(3,2,0) <= 41
 -490 <= u(2,3,0)
 -490 <= u(3,2,0)
 6 <= x(3,0) <= 43
 0 <= x(0,1) <= 34
 0 <= y(0,1,1) <= 1
 0 <= y(1,0,1) <= 1
 -43 <= v(0,1,1) <= 26
 -39 <= v(1,0,1) <= 30
 -490 <= u(0,1,1)
 -490 <= u(1,0,1)
 0 <= y(0,2,1) <= 1
 0 <= y(2,0,1) <= 1
 -49 <= v(0,2,1) <= 26
 -33 <= v(2,0,1) <= 42
 -490 <= u(0,2,1)
 -490 <= u(2,0,1)
 0 <= y(0,3,1) <= 1
 0 <= y(3,0,1) <= 1
 -39 <= v(0,3,1) <= 32
 -39 <= v(3,0,1) <= 32
 -490 <= u(0,3,1)
 -490 <= u(3,0,1)
 0 <= x(1,1) <= 35
 0 <= y(1,2,1) <= 1
 0 <= y(2,1,1) <= 1
 -49 <= v(1,2,1) <= 27
 -37 <= v(2,1,1) <= 39
 -490 <= u(1,2,1)
 -490 <= u(2,1,1)
 0 <= y(1,3,1) <= 1
 0 <= y(3,1,1) <= 1
 -39 <= v(1,3,1) <= 33
 -43 <= v(3,1,1) <= 29
 -490 <= u(1,3,1)
 -490 <= u(3,1,1)
 6 <= x(2,1) <= 47
 0 <= y(2,3,1) <= 1
 0 <= y(3,2,1) <= 1
 -33 <= v(2,3,1) <= 45
 -49 <= v(3,2,1) <= 29
 -490 <= u(2,3,1)
 -490 <= u(3,2,1)
 0 <= x(3,1) <= 37
 5 <= x(0,2) <= 39
 0 <= y(0,1,2) <= 1
 0 <= y(1,0,2) <= 1
 -41 <= v(0,1,2) <= 28
 -40 <= v(1,0,2) <= 29
 -490 <= u(0,1,2)
 -490 <= u(1,0,2)
 0 <= y(0,2,2) <= 1
 0 <= y(2,0,2) <= 1
 -42 <= v(0,2,2) <= 33
 -46 <= v(2,0,2) <= 29
 -490 <= u(0,2,2)
 -490 <= u(2,0,2)
 0 <= y(0,3,2) <= 1
 0 <= y(3,0,2) <= 1
 -38 <= v(0,3,2) <= 33
 -46 <= v(3,0,2) <= 25
 -490 <= u(0,3,2)
 -490 <= u(3,0,2)
 8 <= x(1,2) <= 43
 0 <= y(1,2,2) <= 1
 0 <= y(2,1,2) <= 1
 -39 <= v(1,2,2) <= 37
 -44 <= v(2,1,2) <= 32
 -490 <= u(1,2,2)
 -490 <= u(2,1,2)
 0 <= y(1,3,2) <= 1
 0 <= y(3,1,2) <= 1
 -35 <= v(1,3,2) <= 37
 -44 <= v(3,1,2) <= 28
 -490 <= u(1,3,2)
 -490 <= u(3,1,2)
 2 <= x(2,2) <= 43
 0 <= y(2,3,2) <= 1
 0 <= y(3,2,2) <= 1
 -41 <= v(2,3,2) <= 37
 -45 <= v(3,2,2) <= 33
 -490 <= u(2,3,2)
 -490 <= u(3,2,2)
 2 <= x(3,2) <= 39
Integers
C x(0,0) y(0,1,0) y(1,0,0) v(0,1,0) v(1,0,0) u(0,1,0) u(1,0,0) y(0,2,0) y(2,0,0) 
v(0,2,0) v(2,0,0) u(0,2,0) u(2,0,0) y(0,3,0) y(3,0,0) v(0,3,0) v(3,0,0) u(0,3,0) u(3,0,0) 
x(1,0) y(1,2,0) y(2,1,0) v(1,2,0) v(2,1,0) u(1,2,0) u(2,1,0) y(1,3,0) y(3,1,0) v(1,3,0) 
v(3,1,0) u(1,3,0) u(3,1,0) x(2,0) y(2,3,0) y(3,2,0) v(2,3,0) v(3,2,0) u(2,3,0) u(3,2,0) 
x(3,0) x(0,1) y(0,1,1) y(1,0,1) v(0,1,1) v(1,0,1) u(0,1,1) u(1,0,1) y(0,2,1) y(2,0,1) 
v(0,2,1) v(2,0,1) u(0,2,1) u(2,0,1) y(0,3,1) y(3,0,1) v(0,3,1) v(3,0,1) u(0,3,1) u(3,0,1) 
x(1,1) y(1,2,1) y(2,1,1) v(1,2,1) v(2,1,1) u(1,2,1) u(2,1,1) y(1,3,1) y(3,1,1) v(1,3,1) 
v(3,1,1) u(1,3,1) u(3,1,1) x(2,1) y(2,3,1) y(3,2,1) v(2,3,1) v(3,2,1) u(2,3,1) u(3,2,1) 
x(3,1) x(0,2) y(0,1,2) y(1,0,2) v(0,1,2) v(1,0,2) u(0,1,2) u(1,0,2) y(0,2,2) y(2,0,2) 
v(0,2,2) v(2,0,2) u(0,2,2) u(2,0,2) y(0,3,2) y(3,0,2) v(0,3,2) v(3,0,2) u(0,3,2) u(3,0,2) 
x(1,2) y(1,2,2) y(2,1,2) v(1,2,2) v(2,1,2) u(1,2,2) u(2,1,2) y(1,3,2) y(3,1,2) v(1,3,2) 
v(3,1,2) u(1,3,2) u(3,1,2) x(2,2) y(2,3,2) y(3,2,2) v(2,3,2) v(3,2,2) u(2,3,2) u(3,2,2) 
x(3,2) 
End
